Route #1: 0 38 22 20 16 7 14 0
Route #2: 0 19 26 15 13 30 32 29 1 0
Route #3: 0 31 40 10 23 8 0
Route #4: 0 39 18 37 24 35 25 0
Route #5: 0 2 9 3 21 4 27 12 36 0
Route #6: 0 5 17 28 11 34 33 6 0
Cost 1106:
